NAME: cum140.tsp
TYPE: TSP
COMMENT: User-generated TSP file
DIMENSION: 700
EDGE_WEIGHT_TYPE: EUC_2D
NODE_COORD_SECTION
1 675.0 460.0
2 200.0 484.0
3 575.0 595.0
4 623.0 462.0
5 92.0 202.0
6 281.0 563.0
7 298.0 468.0
8 62.0 209.0
9 23.0 52.0
10 359.0 237.0
11 7.0 329.0
12 589.0 523.0
13 555.0 265.0
14 325.0 191.0
15 255.0 621.0
16 607.0 539.0
17 390.0 237.0
18 41.0 6.0
19 408.0 140.0
20 466.0 308.0
21 142.0 196.0
22 473.0 215.0
23 556.0 292.0
24 475.0 548.0
25 301.0 458.0
26 72.0 604.0
27 551.0 686.0
28 80.0 497.0
29 423.0 396.0
30 554.0 570.0
31 554.0 637.0
32 385.0 123.0
33 231.0 314.0
34 23.0 230.0
35 208.0 9.0
36 45.0 203.0
37 619.0 33.0
38 400.0 357.0
39 333.0 123.0
40 133.0 413.0
41 185.0 219.0
42 98.0 578.0
43 145.0 635.0
44 507.0 186.0
45 623.0 240.0
46 4.0 615.0
47 463.0 41.0
48 367.0 412.0
49 52.0 357.0
50 580.0 627.0
51 84.0 20.0
52 539.0 657.0
53 193.0 30.0
54 43.0 239.0
55 527.0 433.0
56 284.0 93.0
57 606.0 569.0
58 650.0 383.0
59 115.0 225.0
60 342.0 698.0
61 45.0 537.0
62 256.0 288.0
63 221.0 673.0
64 549.0 26.0
65 104.0 291.0
66 117.0 161.0
67 302.0 48.0
68 652.0 355.0
69 605.0 236.0
70 218.0 635.0
71 344.0 275.0
72 476.0 356.0
73 358.0 130.0
74 409.0 695.0
75 688.0 591.0
76 500.0 220.0
77 115.0 506.0
78 305.0 493.0
79 232.0 156.0
80 396.0 27.0
81 563.0 30.0
82 185.0 420.0
83 176.0 174.0
84 228.0 46.0
85 212.0 77.0
86 185.0 183.0
87 582.0 284.0
88 301.0 471.0
89 630.0 328.0
90 207.0 633.0
91 21.0 458.0
92 542.0 352.0
93 420.0 80.0
94 249.0 341.0
95 431.0 425.0
96 443.0 99.0
97 571.0 369.0
98 125.0 124.0
99 120.0 307.0
100 260.0 425.0
101 112.0 357.0
102 491.0 42.0
103 43.0 380.0
104 654.0 602.0
105 494.0 394.0
106 276.0 217.0
107 306.0 354.0
108 678.0 406.0
109 648.0 478.0
110 380.0 579.0
111 473.0 103.0
112 185.0 34.0
113 683.0 121.0
114 368.0 526.0
115 664.0 214.0
116 666.0 421.0
117 408.0 680.0
118 580.0 236.0
119 337.0 607.0
120 639.0 496.0
121 229.0 569.0
122 481.0 666.0
123 145.0 647.0
124 592.0 256.0
125 5.0 178.0
126 447.0 41.0
127 37.0 550.0
128 691.0 574.0
129 600.0 328.0
130 226.0 598.0
131 613.0 369.0
132 142.0 112.0
133 662.0 362.0
134 384.0 129.0
135 261.0 667.0
136 155.0 241.0
137 297.0 79.0
138 14.0 422.0
139 681.0 233.0
140 680.0 546.0
141 484.0 404.0
142 70.0 419.0
143 431.0 177.0
144 177.0 448.0
145 109.0 224.0
146 408.0 670.0
147 415.0 378.0
148 131.0 2.0
149 295.0 37.0
150 130.0 156.0
151 416.0 451.0
152 68.0 405.0
153 687.0 506.0
154 147.0 642.0
155 134.0 33.0
156 277.0 110.0
157 32.0 286.0
158 149.0 193.0
159 26.0 270.0
160 95.0 63.0
161 144.0 139.0
162 367.0 90.0
163 239.0 671.0
164 395.0 564.0
165 72.0 227.0
166 466.0 635.0
167 500.0 370.0
168 17.0 33.0
169 577.0 130.0
170 640.0 9.0
171 264.0 234.0
172 689.0 144.0
173 58.0 264.0
174 594.0 486.0
175 488.0 280.0
176 447.0 114.0
177 401.0 409.0
178 572.0 426.0
179 625.0 586.0
180 389.0 540.0
181 229.0 578.0
182 547.0 157.0
183 29.0 639.0
184 507.0 668.0
185 182.0 150.0
186 233.0 247.0
187 199.0 92.0
188 573.0 178.0
189 65.0 568.0
190 470.0 391.0
191 497.0 379.0
192 541.0 84.0
193 39.0 382.0
194 82.0 323.0
195 57.0 226.0
196 278.0 519.0
197 635.0 346.0
198 48.0 520.0
199 687.0 384.0
200 330.0 344.0
201 399.0 125.0
202 367.0 260.0
203 599.0 252.0
204 393.0 116.0
205 301.0 514.0
206 266.0 324.0
207 398.0 152.0
208 185.0 297.0
209 403.0 233.0
210 618.0 629.0
211 374.0 31.0
212 139.0 361.0
213 357.0 19.0
214 61.0 553.0
215 85.0 273.0
216 361.0 161.0
217 291.0 546.0
218 11.0 77.0
219 176.0 528.0
220 598.0 104.0
221 46.0 605.0
222 575.0 166.0
223 53.0 316.0
224 157.0 556.0
225 282.0 15.0
226 50.0 83.0
227 144.0 165.0
228 601.0 22.0
229 331.0 60.0
230 381.0 686.0
231 603.0 584.0
232 269.0 404.0
233 424.0 226.0
234 613.0 116.0
235 40.0 617.0
236 195.0 79.0
237 472.0 301.0
238 200.0 574.0
239 612.0 227.0
240 86.0 642.0
241 470.0 330.0
242 618.0 93.0
243 690.0 344.0
244 671.0 7.0
245 187.0 155.0
246 424.0 69.0
247 477.0 98.0
248 190.0 72.0
249 674.0 326.0
250 593.0 556.0
251 177.0 585.0
252 241.0 189.0
253 258.0 447.0
254 228.0 149.0
255 512.0 653.0
256 625.0 30.0
257 178.0 615.0
258 521.0 188.0
259 209.0 618.0
260 175.0 443.0
261 16.0 367.0
262 674.0 462.0
263 382.0 344.0
264 392.0 484.0
265 72.0 134.0
266 300.0 599.0
267 523.0 448.0
268 409.0 204.0
269 637.0 218.0
270 312.0 540.0
271 79.0 212.0
272 287.0 643.0
273 250.0 60.0
274 216.0 328.0
275 262.0 556.0
276 324.0 210.0
277 437.0 687.0
278 651.0 272.0
279 227.0 73.0
280 527.0 302.0
281 607.0 84.0
282 396.0 129.0
283 363.0 7.0
284 636.0 630.0
285 221.0 213.0
286 476.0 643.0
287 395.0 264.0
288 358.0 138.0
289 27.0 80.0
290 287.0 117.0
291 224.0 306.0
292 465.0 221.0
293 197.0 94.0
294 462.0 681.0
295 596.0 519.0
296 151.0 448.0
297 509.0 482.0
298 436.0 650.0
299 611.0 547.0
300 565.0 615.0
301 192.0 279.0
302 700.0 230.0
303 420.0 479.0
304 70.0 415.0
305 17.0 634.0
306 398.0 653.0
307 412.0 38.0
308 454.0 216.0
309 587.0 437.0
310 272.0 349.0
311 94.0 205.0
312 157.0 29.0
313 88.0 452.0
314 334.0 282.0
315 139.0 247.0
316 600.0 222.0
317 301.0 152.0
318 659.0 574.0
319 603.0 189.0
320 159.0 586.0
321 246.0 379.0
322 472.0 288.0
323 175.0 233.0
324 263.0 243.0
325 695.0 112.0
326 358.0 335.0
327 123.0 480.0
328 336.0 258.0
329 407.0 322.0
330 72.0 699.0
331 608.0 597.0
332 293.0 529.0
333 456.0 79.0
334 160.0 216.0
335 380.0 683.0
336 630.0 664.0
337 620.0 131.0
338 335.0 127.0
339 173.0 325.0
340 383.0 359.0
341 435.0 111.0
342 665.0 497.0
343 340.0 46.0
344 166.0 372.0
345 466.0 378.0
346 647.0 374.0
347 589.0 473.0
348 297.0 448.0
349 490.0 320.0
350 594.0 36.0
351 670.0 233.0
352 399.0 405.0
353 184.0 532.0
354 319.0 381.0
355 485.0 208.0
356 300.0 558.0
357 251.0 24.0
358 19.0 127.0
359 516.0 634.0
360 287.0 8.0
361 521.0 202.0
362 519.0 493.0
363 564.0 367.0
364 671.0 594.0
365 73.0 681.0
366 346.0 214.0
367 473.0 71.0
368 108.0 525.0
369 277.0 698.0
370 57.0 26.0
371 55.0 84.0
372 48.0 678.0
373 687.0 23.0
374 276.0 541.0
375 661.0 570.0
376 340.0 339.0
377 698.0 198.0
378 105.0 572.0
379 299.0 260.0
380 335.0 30.0
381 657.0 34.0
382 107.0 596.0
383 665.0 67.0
384 431.0 481.0
385 6.0 281.0
386 132.0 61.0
387 361.0 215.0
388 624.0 293.0
389 72.0 268.0
390 478.0 314.0
391 453.0 318.0
392 90.0 566.0
393 218.0 79.0
394 396.0 469.0
395 382.0 501.0
396 107.0 106.0
397 660.0 676.0
398 478.0 617.0
399 569.0 368.0
400 586.0 646.0
401 313.0 306.0
402 640.0 160.0
403 160.0 406.0
404 93.0 566.0
405 373.0 455.0
406 211.0 106.0
407 61.0 387.0
408 541.0 264.0
409 220.0 155.0
410 460.0 637.0
411 500.0 501.0
412 202.0 110.0
413 551.0 216.0
414 640.0 205.0
415 532.0 81.0
416 178.0 639.0
417 220.0 668.0
418 80.0 639.0
419 366.0 74.0
420 58.0 214.0
421 355.0 223.0
422 281.0 611.0
423 555.0 23.0
424 527.0 77.0
425 313.0 193.0
426 309.0 595.0
427 12.0 100.0
428 98.0 536.0
429 470.0 362.0
430 492.0 239.0
431 518.0 217.0
432 418.0 331.0
433 173.0 697.0
434 485.0 513.0
435 189.0 19.0
436 393.0 535.0
437 437.0 638.0
438 86.0 198.0
439 21.0 414.0
440 602.0 391.0
441 236.0 612.0
442 6.0 126.0
443 690.0 525.0
444 492.0 470.0
445 520.0 197.0
446 574.0 610.0
447 595.0 27.0
448 203.0 335.0
449 112.0 185.0
450 431.0 253.0
451 310.0 507.0
452 35.0 615.0
453 2.0 589.0
454 358.0 674.0
455 551.0 77.0
456 496.0 351.0
457 331.0 669.0
458 146.0 372.0
459 9.0 276.0
460 319.0 271.0
461 362.0 109.0
462 547.0 254.0
463 74.0 305.0
464 252.0 437.0
465 193.0 257.0
466 375.0 407.0
467 253.0 58.0
468 313.0 194.0
469 497.0 411.0
470 415.0 41.0
471 245.0 176.0
472 510.0 562.0
473 123.0 537.0
474 651.0 126.0
475 371.0 252.0
476 3.0 541.0
477 258.0 360.0
478 531.0 281.0
479 310.0 203.0
480 240.0 369.0
481 592.0 171.0
482 276.0 317.0
483 529.0 670.0
484 188.0 616.0
485 44.0 13.0
486 480.0 513.0
487 293.0 224.0
488 418.0 124.0
489 63.0 149.0
490 75.0 580.0
491 541.0 588.0
492 403.0 515.0
493 488.0 29.0
494 66.0 585.0
495 267.0 217.0
496 210.0 91.0
497 94.0 35.0
498 443.0 539.0
499 51.0 187.0
500 682.0 242.0
501 265.0 651.0
502 302.0 176.0
503 262.0 194.0
504 448.0 659.0
505 310.0 410.0
506 299.0 393.0
507 347.0 696.0
508 219.0 249.0
509 190.0 21.0
510 584.0 96.0
511 410.0 186.0
512 266.0 126.0
513 356.0 133.0
514 104.0 668.0
515 69.0 139.0
516 654.0 156.0
517 415.0 213.0
518 75.0 156.0
519 280.0 515.0
520 502.0 616.0
521 363.0 296.0
522 186.0 389.0
523 625.0 558.0
524 584.0 576.0
525 404.0 89.0
526 567.0 263.0
527 437.0 553.0
528 676.0 340.0
529 435.0 686.0
530 533.0 463.0
531 275.0 243.0
532 72.0 149.0
533 623.0 314.0
534 634.0 62.0
535 615.0 175.0
536 166.0 21.0
537 398.0 71.0
538 547.0 586.0
539 308.0 218.0
540 650.0 196.0
541 625.0 130.0
542 526.0 280.0
543 357.0 60.0
544 40.0 439.0
545 632.0 491.0
546 578.0 120.0
547 75.0 83.0
548 43.0 416.0
549 249.0 117.0
550 486.0 681.0
551 506.0 693.0
552 139.0 280.0
553 538.0 195.0
554 73.0 164.0
555 211.0 87.0
556 452.0 649.0
557 90.0 125.0
558 451.0 126.0
559 228.0 665.0
560 483.0 305.0
561 502.0 174.0
562 154.0 149.0
563 615.0 492.0
564 341.0 369.0
565 477.0 314.0
566 353.0 108.0
567 686.0 201.0
568 30.0 489.0
569 32.0 57.0
570 554.0 39.0
571 229.0 464.0
572 640.0 635.0
573 684.0 177.0
574 166.0 672.0
575 414.0 331.0
576 600.0 607.0
577 29.0 176.0
578 200.0 92.0
579 105.0 605.0
580 412.0 616.0
581 86.0 215.0
582 168.0 88.0
583 629.0 243.0
584 424.0 371.0
585 337.0 238.0
586 684.0 496.0
587 105.0 584.0
588 572.0 364.0
589 525.0 442.0
590 627.0 597.0
591 337.0 372.0
592 597.0 567.0
593 344.0 559.0
594 119.0 334.0
595 36.0 516.0
596 386.0 111.0
597 57.0 97.0
598 615.0 83.0
599 240.0 51.0
600 616.0 695.0
601 676.0 295.0
602 83.0 480.0
603 220.0 502.0
604 264.0 495.0
605 80.0 104.0
606 231.0 283.0
607 362.0 152.0
608 198.0 73.0
609 324.0 181.0
610 25.0 452.0
611 432.0 620.0
612 551.0 437.0
613 700.0 270.0
614 59.0 653.0
615 574.0 119.0
616 604.0 399.0
617 210.0 228.0
618 78.0 568.0
619 467.0 354.0
620 492.0 426.0
621 281.0 653.0
622 104.0 494.0
623 311.0 411.0
624 209.0 394.0
625 144.0 420.0
626 561.0 201.0
627 236.0 48.0
628 141.0 605.0
629 665.0 320.0
630 565.0 617.0
631 150.0 6.0
632 216.0 493.0
633 251.0 144.0
634 298.0 665.0
635 390.0 571.0
636 549.0 32.0
637 127.0 120.0
638 667.0 188.0
639 84.0 541.0
640 639.0 154.0
641 225.0 239.0
642 386.0 75.0
643 509.0 575.0
644 529.0 63.0
645 546.0 463.0
646 502.0 694.0
647 596.0 567.0
648 550.0 453.0
649 129.0 153.0
650 170.0 400.0
651 632.0 365.0
652 414.0 666.0
653 369.0 8.0
654 665.0 238.0
655 334.0 625.0
656 107.0 622.0
657 236.0 181.0
658 526.0 163.0
659 220.0 185.0
660 139.0 676.0
661 32.0 662.0
662 433.0 178.0
663 633.0 381.0
664 315.0 230.0
665 354.0 325.0
666 222.0 327.0
667 324.0 104.0
668 663.0 460.0
669 295.0 408.0
670 598.0 549.0
671 661.0 388.0
672 511.0 420.0
673 392.0 399.0
674 110.0 351.0
675 316.0 308.0
676 440.0 343.0
677 89.0 64.0
678 227.0 528.0
679 426.0 508.0
680 221.0 674.0
681 273.0 129.0
682 125.0 25.0
683 283.0 216.0
684 591.0 168.0
685 606.0 328.0
686 592.0 388.0
687 391.0 151.0
688 265.0 696.0
689 62.0 207.0
690 578.0 535.0
691 686.0 259.0
692 679.0 152.0
693 640.0 157.0
694 205.0 42.0
695 122.0 259.0
696 312.0 387.0
697 623.0 441.0
698 120.0 448.0
699 308.0 630.0
700 521.0 230.0
EOF

